job_count = 18 ;
duration = [|12, 18, 1|10, 15, 8|18, 12, 8|25, 13, 3|4, 11, 9|22, 14, 6|12, 5, 2|3, 16, 2|25, 12, 6|20, 2, 8|14, 19, 5|3, 10, 1|6, 13, 8|12, 4, 6|10, 6, 8|29, 14, 5|22, 3, 1|29, 16, 5|] ;
machine_count = 3 ;
cost = [|10, 21, 37|17, 22, 43|12, 23, 56|19, 22, 35|15, 20, 48|13, 34, 43|10, 37, 45|19, 29, 48|13, 27, 46|12, 22, 53|10, 39, 55|11, 24, 36|12, 38, 55|16, 22, 30|14, 25, 55|16, 26, 41|12, 35, 47|16, 25, 44|] ;
deadline = [40, 40, 40, 40, 40, 40, 40, 40, 40, 40, 40, 40, 40, 40, 40, 40, 40, 40] ;
release = [0, 0, 0, 0, 0, 0, 0, 0, 0, 0, 0, 0, 0, 0, 0, 0, 0, 0] ;
resource = [|6, 6, 6|4, 4, 4|8, 8, 8|9, 9, 9|6, 6, 6|6, 6, 6|9, 9, 9|8, 8, 8|2, 2, 2|9, 9, 9|7, 7, 7|6, 6, 6|5, 5, 5|4, 4, 4|5, 5, 5|3, 3, 3|6, 6, 6|3, 3, 3|] ;
capacities = [10, 10, 10] ;
